Data path: /scratch/opt/lxu/CFLG/benchmarks/Kgroup_A
Instance: K100.4.con.red
Result path: /scratch/opt/lxu/CFLG/results/Kgroup_A
Solver: Gurobi
Time limit: 3600
Formulation: LEFPV
Cover: Large
julia --project=. src/main.jl /scratch/opt/lxu/CFLG/benchmarks/Kgroup_A K100.4.con.red /scratch/opt/lxu/CFLG/results/Kgroup_A Gurobi 3600 LEFPV Large
The latest version of Julia in the `release` channel is 1.11.5+0.x64.linux.gnu. You currently have `1.11.4+0.x64.linux.gnu` installed. Run:

  juliaup update

in your terminal shell to install Julia 1.11.5+0.x64.linux.gnu and update the `release` channel to that version.
/scratch/opt/lxu/CFLG/benchmarks/Kgroup_A Gurobi 3600.0 /scratch/opt/lxu/CFLG/results/Kgroup_A K100.4.con.red LEFPV Large
/scratch/opt/lxu/CFLG/benchmarks/Kgroup_A/K100.4.con.red

 read graph
data loaded


after absorb:29 29

max_piece:4
problem_graph/original graph: node: 40/29 edge: 124/113 dlt: 0.6125142061016242 break_avg_len: 0.27908913423178855 break_max_len: 0.6125135935874181Set parameter TokenServer to value "solice01.zib.de"
Set parameter Threads to value 1
Set parameter OutputFlag to value 1
Gurobi Optimizer version 12.0.1 build v12.0.1rc0 (linux64 - "Debian GNU/Linux 12 (bookworm)")

CPU model: Intel(R) Xeon(R) Gold 5122 CPU @ 3.60GHz, instruction set [SSE2|AVX|AVX2|AVX512]
Thread count: 8 physical cores, 16 logical processors, using up to 1 threads

Non-default parameters:
Threads  1

Optimize a model with 164 rows, 372 columns and 620 nonzeros
Model fingerprint: 0xcd154e50
Coefficient statistics:
  Matrix range     [1e+00, 1e+00]
  Objective range  [1e+00, 1e+00]
  Bounds range     [1e+00, 1e+00]
  RHS range        [1e+00, 1e+00]
Presolve removed 164 rows and 372 columns
Presolve time: 0.00s
Presolve: All rows and columns removed
Iteration    Objective       Primal Inf.    Dual Inf.      Time
       0    1.0000000e+00   0.000000e+00   0.000000e+00      0s

Solved in 0 iterations and 0.00 seconds (0.00 work units)
Optimal objective  1.000000000e+00

User-callback calls 35, time in user-callback 0.00 sec
elapsed CPU time: 1.174798 seconds
Set parameter TokenServer to value "solice01.zib.de"
Set parameter Threads to value 1
Set parameter OutputFlag to value 1
Set parameter MIPGap to value 0.0001
Set parameter MIPGapAbs to value 1
Set parameter TimeLimit to value 3598.825202

 more cuts:falsefalse
1 0
formulation:LEFPV0 124 40
Set parameter PreCrush to value 1

 model loaded

Gurobi Optimizer version 12.0.1 build v12.0.1rc0 (linux64 - "Debian GNU/Linux 12 (bookworm)")

CPU model: Intel(R) Xeon(R) Gold 5122 CPU @ 3.60GHz, instruction set [SSE2|AVX|AVX2|AVX512]
Thread count: 8 physical cores, 16 logical processors, using up to 1 threads

Non-default parameters:
TimeLimit  3598.825202
MIPGapAbs  1
PreCrush  1
Threads  1

Optimize a model with 8687 rows, 4421 columns and 25735 nonzeros
Model fingerprint: 0x1d9cd262
Variable types: 288 continuous, 4133 integer (4133 binary)
Coefficient statistics:
  Matrix range     [1e-06, 1e+00]
  Objective range  [1e+00, 1e+00]
  Bounds range     [3e-02, 6e-01]
  RHS range        [3e-02, 1e+01]
Found heuristic solution: objective 20.0000000
Presolve removed 2081 rows and 327 columns
Presolve time: 0.06s
Presolved: 6606 rows, 4094 columns, 22429 nonzeros
Variable types: 163 continuous, 3931 integer (3931 binary)
Found heuristic solution: objective 19.0000000

Root relaxation: objective 1.086420e+00, 2781 iterations, 0.08 seconds (0.14 work units)

    Nodes    |    Current Node    |     Objective Bounds      |     Work
 Expl Unexpl |  Obj  Depth IntInf | Incumbent    BestBd   Gap | It/Node Time

     0     0    1.08642    0  203   19.00000    1.08642  94.3%     -    0s
H    0     0                      18.0000000    1.08642  94.0%     -    0s
H    0     0                      13.0000000    1.08642  91.6%     -    0s
H    0     0                      11.0000000    1.08642  90.1%     -    0s
H    0     0                      10.0000000    1.08642  89.1%     -    0s
H    0     0                       9.0000000    1.08642  87.9%     -    0s
H    0     0                       8.0000000    1.08642  86.4%     -    0s
H    0     0                       7.0000000    1.08642  84.5%     -    0s
     0     0    1.78756    0  334    7.00000    1.78756  74.5%     -    0s
H    0     0                       6.0000000    1.79235  70.1%     -    0s
     0     0    1.84232    0  313    6.00000    1.84232  69.3%     -    0s
     0     0    1.84232    0  319    6.00000    1.84232  69.3%     -    0s
     0     0    1.98511    0  360    6.00000    1.98511  66.9%     -    1s
H    0     0                       5.0000000    2.01186  59.8%     -    1s
     0     0    2.01186    0  383    5.00000    2.01186  59.8%     -    1s
     0     0    2.01433    0  393    5.00000    2.01433  59.7%     -    1s
     0     0    2.01710    0  404    5.00000    2.01710  59.7%     -    1s
     0     0    2.01725    0  424    5.00000    2.01725  59.7%     -    1s
     0     0    2.43378    0  321    5.00000    2.43378  51.3%     -    1s
     0     0    2.47182    0  357    5.00000    2.47182  50.6%     -    1s
     0     0    2.47206    0  363    5.00000    2.47206  50.6%     -    1s
     0     0    2.50000    0  201    5.00000    2.50000  50.0%     -    1s
     0     0    2.51504    0  413    5.00000    2.51504  49.7%     -    1s
     0     0    2.51616    0  424    5.00000    2.51616  49.7%     -    1s
     0     0    2.51795    0  401    5.00000    2.51795  49.6%     -    1s
     0     0    2.51818    0  415    5.00000    2.51818  49.6%     -    1s
     0     0    2.52357    0  398    5.00000    2.52357  49.5%     -    1s
     0     0    2.53048    0  372    5.00000    2.53048  49.4%     -    1s
     0     0    2.53048    0  434    5.00000    2.53048  49.4%     -    1s
     0     0    2.53048    0  434    5.00000    2.53048  49.4%     -    1s
     0     0    2.53048    0  417    5.00000    2.53048  49.4%     -    1s
     0     0    2.53144    0  410    5.00000    2.53144  49.4%     -    1s
     0     0    2.53144    0  431    5.00000    2.53144  49.4%     -    1s
     0     0    2.53144    0  456    5.00000    2.53144  49.4%     -    1s
     0     0    2.53144    0  456    5.00000    2.53144  49.4%     -    1s
     0     0    2.53144    0  433    5.00000    2.53144  49.4%     -    2s
     0     0    2.53144    0  274    5.00000    2.53144  49.4%     -    2s
     0     2    2.53256    0  274    5.00000    2.53256  49.3%     -    2s
   271   177    4.00000   14   76    5.00000    3.00000  40.0%   107    5s
   731   401    4.00000   35  297    5.00000    3.00000  40.0%  85.4   10s
   745   411    3.57361   17  305    5.00000    3.00000  40.0%  83.8   15s
   753   416    4.00000   34  344    5.00000    3.00000  40.0%  82.9   20s
   764   423    4.00000   43  519    5.00000    3.00000  40.0%  81.7   25s
   777   434    3.50000   13  161    5.00000    3.02134  39.6%   173   30s
   880   446    3.75000   17  263    5.00000    3.15000  37.0%   190   35s
   985   439    4.00000   20   45    5.00000    3.40000  32.0%   203   40s
  1091   410    3.88556   17  134    5.00000    3.46154  30.8%   218   45s
H 1187   269                       4.0000000    3.50000  12.5%   229   49s

Cutting planes:
  Cover: 10
  Implied bound: 6
  MIR: 3
  StrongCG: 1
  Flow cover: 11
  GUB cover: 38
  Zero half: 24
  RLT: 7
  Relax-and-lift: 4
  BQP: 1

Explored 1188 nodes (290052 simplex iterations) in 49.64 seconds (62.99 work units)
Thread count was 1 (of 16 available processors)

Solution count 10: 4 5 6 ... 18

Optimal solution found (tolerance 1.00e-04)
Best objective 4.000000000000e+00, best bound 4.000000000000e+00, gap 0.0000%

User-callback calls 12688, time in user-callback 0.68 sec

 sepatime0
4.0Stat(MathOptInterface.OPTIMAL, 4.0, 4.0, 0.0, 0.0, 1.174798, 49.645161867141724, 1188, Main.CFLG.LEFPV, "", #undef)
